g3 1 1 0	# problem unknown
 54 147 1 0 1 	# vars, constraints, objectives, ranges, eqns
 74 0 0 0 0 0	# nonlinear constrs, objs; ccons: lin, nonlin, nd, nzlb
 0 0	# network constraints: nonlinear, linear
 18 0 0 	# nonlinear vars in constraints, objectives, both
 0 0 0 1	# linear network variables; functions; arith, flags
 0 36 0 18 0 	# discrete variables: binary, integer, nonlinear (b,c,o)
 905 0 	# nonzeros in Jacobian, obj. gradient
 0 0	# max name lengths: constraints, variables
 0 0 0 0 0	# common exprs: b,c,o,c1,o1
C0
o16
o54
3
o2
v0
v1
o2
v2
v3
o2
v4
v5
C1
o16
o54
3
o2
v0
v1
o2
v2
v3
o2
v4
v5
C2
o16
o54
3
o2
v0
v1
o2
v2
v3
o2
v4
v5
C3
o16
o54
4
o2
v0
v1
o2
v2
v3
o2
v4
v5
o2
v6
v7
C4
o16
o54
4
o2
v0
v1
o2
v2
v3
o2
v4
v5
o2
v6
v7
C5
o16
o54
4
o2
v0
v1
o2
v2
v3
o2
v4
v5
o2
v6
v7
C6
o16
o54
4
o2
v0
v1
o2
v2
v3
o2
v4
v5
o2
v6
v7
C7
o16
o54
4
o2
v0
v1
o2
v2
v3
o2
v4
v5
o2
v6
v7
C8
o16
o54
6
o2
v2
v3
o2
v4
v5
o2
v6
v7
o2
v8
v9
o2
v10
v11
o2
v12
v13
C9
o16
o54
6
o2
v2
v3
o2
v4
v5
o2
v6
v7
o2
v8
v9
o2
v10
v11
o2
v12
v13
C10
o16
o54
6
o2
v2
v3
o2
v4
v5
o2
v6
v7
o2
v8
v9
o2
v10
v11
o2
v12
v13
C11
o16
o54
6
o2
v2
v3
o2
v4
v5
o2
v6
v7
o2
v8
v9
o2
v10
v11
o2
v12
v13
C12
o16
o54
6
o2
v2
v3
o2
v4
v5
o2
v6
v7
o2
v8
v9
o2
v10
v11
o2
v12
v13
C13
o16
o54
6
o2
v2
v3
o2
v4
v5
o2
v6
v7
o2
v8
v9
o2
v10
v11
o2
v12
v13
C14
o16
o54
6
o2
v2
v3
o2
v4
v5
o2
v6
v7
o2
v8
v9
o2
v10
v11
o2
v12
v13
C15
o16
o54
6
o2
v2
v3
o2
v4
v5
o2
v6
v7
o2
v8
v9
o2
v10
v11
o2
v12
v13
C16
o16
o54
6
o2
v2
v3
o2
v4
v5
o2
v6
v7
o2
v8
v9
o2
v10
v11
o2
v12
v13
C17
o16
o54
6
o2
v2
v3
o2
v4
v5
o2
v8
v9
o2
v10
v11
o2
v12
v13
o2
v14
v15
C18
o16
o54
6
o2
v2
v3
o2
v4
v5
o2
v8
v9
o2
v10
v11
o2
v12
v13
o2
v14
v15
C19
o16
o54
6
o2
v2
v3
o2
v4
v5
o2
v8
v9
o2
v10
v11
o2
v12
v13
o2
v14
v15
C20
o16
o54
6
o2
v2
v3
o2
v4
v5
o2
v8
v9
o2
v10
v11
o2
v12
v13
o2
v14
v15
C21
o16
o54
6
o2
v2
v3
o2
v4
v5
o2
v8
v9
o2
v10
v11
o2
v12
v13
o2
v14
v15
C22
o16
o54
6
o2
v2
v3
o2
v4
v5
o2
v8
v9
o2
v10
v11
o2
v12
v13
o2
v14
v15
C23
o16
o54
6
o2
v2
v3
o2
v4
v5
o2
v8
v9
o2
v10
v11
o2
v12
v13
o2
v14
v15
C24
o16
o54
6
o2
v2
v3
o2
v4
v5
o2
v8
v9
o2
v10
v11
o2
v12
v13
o2
v14
v15
C25
o16
o54
6
o2
v2
v3
o2
v4
v5
o2
v8
v9
o2
v10
v11
o2
v12
v13
o2
v14
v15
C26
o16
o54
6
o2
v2
v3
o2
v4
v5
o2
v8
v9
o2
v10
v11
o2
v12
v13
o2
v14
v15
C27
o16
o54
4
o2
v4
v5
o2
v10
v11
o2
v12
v13
o2
v14
v15
C28
o16
o54
4
o2
v4
v5
o2
v10
v11
o2
v12
v13
o2
v14
v15
C29
o16
o54
4
o2
v4
v5
o2
v12
v13
o2
v14
v15
o2
v16
v17
C30
o16
o54
4
o2
v4
v5
o2
v12
v13
o2
v14
v15
o2
v16
v17
C31
o16
o54
4
o2
v4
v5
o2
v12
v13
o2
v14
v15
o2
v16
v17
C32
o16
o54
4
o2
v4
v5
o2
v12
v13
o2
v14
v15
o2
v16
v17
C33
o16
o54
4
o2
v4
v5
o2
v12
v13
o2
v14
v15
o2
v16
v17
C34
o16
o54
4
o2
v4
v5
o2
v12
v13
o2
v14
v15
o2
v16
v17
C35
o16
o54
4
o2
v4
v5
o2
v12
v13
o2
v14
v15
o2
v16
v17
C36
o54
3
o2
v0
v1
o2
v2
v3
o2
v4
v5
C37
o54
3
o2
v0
v1
o2
v2
v3
o2
v4
v5
C38
o54
3
o2
v0
v1
o2
v2
v3
o2
v4
v5
C39
o54
4
o2
v0
v1
o2
v2
v3
o2
v4
v5
o2
v6
v7
C40
o54
4
o2
v0
v1
o2
v2
v3
o2
v4
v5
o2
v6
v7
C41
o54
4
o2
v0
v1
o2
v2
v3
o2
v4
v5
o2
v6
v7
C42
o54
4
o2
v0
v1
o2
v2
v3
o2
v4
v5
o2
v6
v7
C43
o54
4
o2
v0
v1
o2
v2
v3
o2
v4
v5
o2
v6
v7
C44
o54
6
o2
v2
v3
o2
v4
v5
o2
v6
v7
o2
v8
v9
o2
v10
v11
o2
v12
v13
C45
o54
6
o2
v2
v3
o2
v4
v5
o2
v6
v7
o2
v8
v9
o2
v10
v11
o2
v12
v13
C46
o54
6
o2
v2
v3
o2
v4
v5
o2
v6
v7
o2
v8
v9
o2
v10
v11
o2
v12
v13
C47
o54
6
o2
v2
v3
o2
v4
v5
o2
v6
v7
o2
v8
v9
o2
v10
v11
o2
v12
v13
C48
o54
6
o2
v2
v3
o2
v4
v5
o2
v6
v7
o2
v8
v9
o2
v10
v11
o2
v12
v13
C49
o54
6
o2
v2
v3
o2
v4
v5
o2
v6
v7
o2
v8
v9
o2
v10
v11
o2
v12
v13
C50
o54
6
o2
v2
v3
o2
v4
v5
o2
v6
v7
o2
v8
v9
o2
v10
v11
o2
v12
v13
C51
o54
6
o2
v2
v3
o2
v4
v5
o2
v6
v7
o2
v8
v9
o2
v10
v11
o2
v12
v13
C52
o54
6
o2
v2
v3
o2
v4
v5
o2
v6
v7
o2
v8
v9
o2
v10
v11
o2
v12
v13
C53
o54
6
o2
v2
v3
o2
v4
v5
o2
v8
v9
o2
v10
v11
o2
v12
v13
o2
v14
v15
C54
o54
6
o2
v2
v3
o2
v4
v5
o2
v8
v9
o2
v10
v11
o2
v12
v13
o2
v14
v15
C55
o54
6
o2
v2
v3
o2
v4
v5
o2
v8
v9
o2
v10
v11
o2
v12
v13
o2
v14
v15
C56
o54
6
o2
v2
v3
o2
v4
v5
o2
v8
v9
o2
v10
v11
o2
v12
v13
o2
v14
v15
C57
o54
6
o2
v2
v3
o2
v4
v5
o2
v8
v9
o2
v10
v11
o2
v12
v13
o2
v14
v15
C58
o54
6
o2
v2
v3
o2
v4
v5
o2
v8
v9
o2
v10
v11
o2
v12
v13
o2
v14
v15
C59
o54
6
o2
v2
v3
o2
v4
v5
o2
v8
v9
o2
v10
v11
o2
v12
v13
o2
v14
v15
C60
o54
6
o2
v2
v3
o2
v4
v5
o2
v8
v9
o2
v10
v11
o2
v12
v13
o2
v14
v15
C61
o54
6
o2
v2
v3
o2
v4
v5
o2
v8
v9
o2
v10
v11
o2
v12
v13
o2
v14
v15
C62
o54
6
o2
v2
v3
o2
v4
v5
o2
v8
v9
o2
v10
v11
o2
v12
v13
o2
v14
v15
C63
o54
4
o2
v4
v5
o2
v10
v11
o2
v12
v13
o2
v14
v15
C64
o54
4
o2
v4
v5
o2
v10
v11
o2
v12
v13
o2
v14
v15
C65
o54
4
o2
v4
v5
o2
v12
v13
o2
v14
v15
o2
v16
v17
C66
o54
4
o2
v4
v5
o2
v12
v13
o2
v14
v15
o2
v16
v17
C67
o54
4
o2
v4
v5
o2
v12
v13
o2
v14
v15
o2
v16
v17
C68
o54
4
o2
v4
v5
o2
v12
v13
o2
v14
v15
o2
v16
v17
C69
o54
4
o2
v4
v5
o2
v12
v13
o2
v14
v15
o2
v16
v17
C70
o54
4
o2
v4
v5
o2
v12
v13
o2
v14
v15
o2
v16
v17
C71
o54
4
o2
v4
v5
o2
v12
v13
o2
v14
v15
o2
v16
v17
C72
o54
9
o2
o2
n2148
v0
v1
o2
o2
n7182
v2
v3
o2
o2
n9840
v4
v5
o2
o2
n3578
v6
v7
o2
o2
n5034
v8
v9
o2
o2
n5612
v10
v11
o2
o2
n7692
v12
v13
o2
o2
n5396
v14
v15
o2
o2
n2080
v16
v17
C73
o54
9
o2
o2
n2148
v0
v1
o2
o2
n7182
v2
v3
o2
o2
n9840
v4
v5
o2
o2
n3578
v6
v7
o2
o2
n5034
v8
v9
o2
o2
n5612
v10
v11
o2
o2
n7692
v12
v13
o2
o2
n5396
v14
v15
o2
o2
n2080
v16
v17
C74
n0
C75
n0
C76
n0
C77
n0
C78
n0
C79
n0
C80
n0
C81
n0
C82
n0
C83
n0
C84
n0
C85
n0
C86
n0
C87
n0
C88
n0
C89
n0
C90
n0
C91
n0
C92
n0
C93
n0
C94
n0
C95
n0
C96
n0
C97
n0
C98
n0
C99
n0
C100
n0
C101
n0
C102
n0
C103
n0
C104
n0
C105
n0
C106
n0
C107
n0
C108
n0
C109
n0
C110
n0
C111
n0
C112
n0
C113
n0
C114
n0
C115
n0
C116
n0
C117
n0
C118
n0
C119
n0
C120
n0
C121
n0
C122
n0
C123
n0
C124
n0
C125
n0
C126
n0
C127
n0
C128
n0
C129
n0
C130
n0
C131
n0
C132
n0
C133
n0
C134
n0
C135
n0
C136
n0
C137
n0
C138
n0
C139
n0
C140
n0
C141
n0
C142
n0
C143
n0
C144
n0
C145
n0
C146
n0
O0 0
n0.0
x0
r
1 0
1 0
1 0
1 0
1 0
1 0
1 0
1 0
1 0
1 0
1 0
1 0
1 0
1 0
1 0
1 0
1 0
1 0
1 0
1 0
1 0
1 0
1 0
1 0
1 0
1 0
1 0
1 0
1 0
1 0
1 0
1 0
1 0
1 0
1 0
1 0
1 0
1 0
1 0
1 0
1 0
1 0
1 0
1 0
1 0
1 0
1 0
1 0
1 0
1 0
1 0
1 0
1 0
1 0
1 0
1 0
1 0
1 0
1 0
1 0
1 0
1 0
1 0
1 0
1 0
1 0
1 0
1 0
1 0
1 0
1 0
1 0
2 201600
1 205200
2 5
2 5
2 5
2 9
2 9
2 9
2 9
2 9
2 9
2 9
2 9
2 16
2 16
2 16
2 16
2 16
2 16
2 13
2 13
2 13
2 13
2 13
2 13
2 17
2 17
2 17
2 17
2 17
2 17
2 16
2 16
2 16
2 16
2 16
2 16
2 16
1 30
1 30
1 30
1 30
1 30
1 30
1 30
1 30
1 30
1 30
1 30
1 30
1 30
1 30
1 30
1 30
1 30
1 30
1 30
1 30
1 30
1 30
1 30
1 30
1 30
1 30
1 30
1 30
1 30
1 30
1 30
1 30
1 30
1 30
1 30
1 30
4 2
b
2 0
0 0 1
2 0
0 0 1
2 0
0 0 1
2 0
0 0 1
2 0
0 0 1
2 0
0 0 1
2 0
0 0 1
2 0
0 0 1
2 0
0 0 1
2 0
2 0
2 0
2 0
2 0
2 0
2 0
2 0
2 0
2 0
2 0
2 0
2 0
2 0
2 0
2 0
2 0
2 0
2 0
2 0
2 0
2 0
2 0
2 0
2 0
2 0
2 0
2 0
2 0
2 0
2 0
2 0
2 0
2 0
2 0
2 0
k53
18
37
93
150
224
299
329
360
400
441
485
530
588
647
687
728
744
761
765
769
773
777
781
785
789
793
797
801
805
809
813
817
821
825
829
833
837
841
845
849
853
857
861
865
869
873
877
881
885
889
893
897
901
J0 7
0 0
1 0
2 0
3 0
4 0
5 0
18 1
J1 7
0 0
1 0
2 0
3 0
4 0
5 0
19 1
J2 7
0 0
1 0
2 0
3 0
4 0
5 0
20 1
J3 9
0 0
1 0
2 0
3 0
4 0
5 0
6 0
7 0
21 1
J4 9
0 0
1 0
2 0
3 0
4 0
5 0
6 0
7 0
22 1
J5 9
0 0
1 0
2 0
3 0
4 0
5 0
6 0
7 0
23 1
J6 9
0 0
1 0
2 0
3 0
4 0
5 0
6 0
7 0
24 1
J7 9
0 0
1 0
2 0
3 0
4 0
5 0
6 0
7 0
25 1
J8 13
2 0
3 0
4 0
5 0
6 0
7 0
8 0
9 0
10 0
11 0
12 0
13 0
26 1
J9 13
2 0
3 0
4 0
5 0
6 0
7 0
8 0
9 0
10 0
11 0
12 0
13 0
27 1
J10 13
2 0
3 0
4 0
5 0
6 0
7 0
8 0
9 0
10 0
11 0
12 0
13 0
28 1
J11 13
2 0
3 0
4 0
5 0
6 0
7 0
8 0
9 0
10 0
11 0
12 0
13 0
29 1
J12 13
2 0
3 0
4 0
5 0
6 0
7 0
8 0
9 0
10 0
11 0
12 0
13 0
30 1
J13 13
2 0
3 0
4 0
5 0
6 0
7 0
8 0
9 0
10 0
11 0
12 0
13 0
31 1
J14 13
2 0
3 0
4 0
5 0
6 0
7 0
8 0
9 0
10 0
11 0
12 0
13 0
32 1
J15 13
2 0
3 0
4 0
5 0
6 0
7 0
8 0
9 0
10 0
11 0
12 0
13 0
33 1
J16 13
2 0
3 0
4 0
5 0
6 0
7 0
8 0
9 0
10 0
11 0
12 0
13 0
34 1
J17 13
2 0
3 0
4 0
5 0
8 0
9 0
10 0
11 0
12 0
13 0
14 0
15 0
35 1
J18 13
2 0
3 0
4 0
5 0
8 0
9 0
10 0
11 0
12 0
13 0
14 0
15 0
36 1
J19 13
2 0
3 0
4 0
5 0
8 0
9 0
10 0
11 0
12 0
13 0
14 0
15 0
37 1
J20 13
2 0
3 0
4 0
5 0
8 0
9 0
10 0
11 0
12 0
13 0
14 0
15 0
38 1
J21 13
2 0
3 0
4 0
5 0
8 0
9 0
10 0
11 0
12 0
13 0
14 0
15 0
39 1
J22 13
2 0
3 0
4 0
5 0
8 0
9 0
10 0
11 0
12 0
13 0
14 0
15 0
40 1
J23 13
2 0
3 0
4 0
5 0
8 0
9 0
10 0
11 0
12 0
13 0
14 0
15 0
41 1
J24 13
2 0
3 0
4 0
5 0
8 0
9 0
10 0
11 0
12 0
13 0
14 0
15 0
42 1
J25 13
2 0
3 0
4 0
5 0
8 0
9 0
10 0
11 0
12 0
13 0
14 0
15 0
43 1
J26 13
2 0
3 0
4 0
5 0
8 0
9 0
10 0
11 0
12 0
13 0
14 0
15 0
44 1
J27 9
4 0
5 0
10 0
11 0
12 0
13 0
14 0
15 0
45 1
J28 9
4 0
5 0
10 0
11 0
12 0
13 0
14 0
15 0
46 1
J29 9
4 0
5 0
12 0
13 0
14 0
15 0
16 0
17 0
47 1
J30 9
4 0
5 0
12 0
13 0
14 0
15 0
16 0
17 0
48 1
J31 9
4 0
5 0
12 0
13 0
14 0
15 0
16 0
17 0
49 1
J32 9
4 0
5 0
12 0
13 0
14 0
15 0
16 0
17 0
50 1
J33 9
4 0
5 0
12 0
13 0
14 0
15 0
16 0
17 0
51 1
J34 9
4 0
5 0
12 0
13 0
14 0
15 0
16 0
17 0
52 1
J35 9
4 0
5 0
12 0
13 0
14 0
15 0
16 0
17 0
53 1
J36 7
0 0
1 0
2 0
3 0
4 0
5 0
18 -1
J37 7
0 0
1 0
2 0
3 0
4 0
5 0
19 -1
J38 7
0 0
1 0
2 0
3 0
4 0
5 0
20 -1
J39 9
0 0
1 0
2 0
3 0
4 0
5 0
6 0
7 0
21 -1
J40 9
0 0
1 0
2 0
3 0
4 0
5 0
6 0
7 0
22 -1
J41 9
0 0
1 0
2 0
3 0
4 0
5 0
6 0
7 0
23 -1
J42 9
0 0
1 0
2 0
3 0
4 0
5 0
6 0
7 0
24 -1
J43 9
0 0
1 0
2 0
3 0
4 0
5 0
6 0
7 0
25 -1
J44 13
2 0
3 0
4 0
5 0
6 0
7 0
8 0
9 0
10 0
11 0
12 0
13 0
26 -1
J45 13
2 0
3 0
4 0
5 0
6 0
7 0
8 0
9 0
10 0
11 0
12 0
13 0
27 -1
J46 13
2 0
3 0
4 0
5 0
6 0
7 0
8 0
9 0
10 0
11 0
12 0
13 0
28 -1
J47 13
2 0
3 0
4 0
5 0
6 0
7 0
8 0
9 0
10 0
11 0
12 0
13 0
29 -1
J48 13
2 0
3 0
4 0
5 0
6 0
7 0
8 0
9 0
10 0
11 0
12 0
13 0
30 -1
J49 13
2 0
3 0
4 0
5 0
6 0
7 0
8 0
9 0
10 0
11 0
12 0
13 0
31 -1
J50 13
2 0
3 0
4 0
5 0
6 0
7 0
8 0
9 0
10 0
11 0
12 0
13 0
32 -1
J51 13
2 0
3 0
4 0
5 0
6 0
7 0
8 0
9 0
10 0
11 0
12 0
13 0
33 -1
J52 13
2 0
3 0
4 0
5 0
6 0
7 0
8 0
9 0
10 0
11 0
12 0
13 0
34 -1
J53 13
2 0
3 0
4 0
5 0
8 0
9 0
10 0
11 0
12 0
13 0
14 0
15 0
35 -1
J54 13
2 0
3 0
4 0
5 0
8 0
9 0
10 0
11 0
12 0
13 0
14 0
15 0
36 -1
J55 13
2 0
3 0
4 0
5 0
8 0
9 0
10 0
11 0
12 0
13 0
14 0
15 0
37 -1
J56 13
2 0
3 0
4 0
5 0
8 0
9 0
10 0
11 0
12 0
13 0
14 0
15 0
38 -1
J57 13
2 0
3 0
4 0
5 0
8 0
9 0
10 0
11 0
12 0
13 0
14 0
15 0
39 -1
J58 13
2 0
3 0
4 0
5 0
8 0
9 0
10 0
11 0
12 0
13 0
14 0
15 0
40 -1
J59 13
2 0
3 0
4 0
5 0
8 0
9 0
10 0
11 0
12 0
13 0
14 0
15 0
41 -1
J60 13
2 0
3 0
4 0
5 0
8 0
9 0
10 0
11 0
12 0
13 0
14 0
15 0
42 -1
J61 13
2 0
3 0
4 0
5 0
8 0
9 0
10 0
11 0
12 0
13 0
14 0
15 0
43 -1
J62 13
2 0
3 0
4 0
5 0
8 0
9 0
10 0
11 0
12 0
13 0
14 0
15 0
44 -1
J63 9
4 0
5 0
10 0
11 0
12 0
13 0
14 0
15 0
45 -1
J64 9
4 0
5 0
10 0
11 0
12 0
13 0
14 0
15 0
46 -1
J65 9
4 0
5 0
12 0
13 0
14 0
15 0
16 0
17 0
47 -1
J66 9
4 0
5 0
12 0
13 0
14 0
15 0
16 0
17 0
48 -1
J67 9
4 0
5 0
12 0
13 0
14 0
15 0
16 0
17 0
49 -1
J68 9
4 0
5 0
12 0
13 0
14 0
15 0
16 0
17 0
50 -1
J69 9
4 0
5 0
12 0
13 0
14 0
15 0
16 0
17 0
51 -1
J70 9
4 0
5 0
12 0
13 0
14 0
15 0
16 0
17 0
52 -1
J71 9
4 0
5 0
12 0
13 0
14 0
15 0
16 0
17 0
53 -1
J72 18
0 0
1 0
2 0
3 0
4 0
5 0
6 0
7 0
8 0
9 0
10 0
11 0
12 0
13 0
14 0
15 0
16 0
17 0
J73 18
0 0
1 0
2 0
3 0
4 0
5 0
6 0
7 0
8 0
9 0
10 0
11 0
12 0
13 0
14 0
15 0
16 0
17 0
J74 1
18 1
J75 1
19 1
J76 1
20 1
J77 1
21 1
J78 1
22 1
J79 1
23 1
J80 1
24 1
J81 1
25 1
J82 1
26 1
J83 1
27 1
J84 1
28 1
J85 1
29 1
J86 1
30 1
J87 1
31 1
J88 1
32 1
J89 1
33 1
J90 1
34 1
J91 1
35 1
J92 1
36 1
J93 1
37 1
J94 1
38 1
J95 1
39 1
J96 1
40 1
J97 1
41 1
J98 1
42 1
J99 1
43 1
J100 1
44 1
J101 1
45 1
J102 1
46 1
J103 1
47 1
J104 1
48 1
J105 1
49 1
J106 1
50 1
J107 1
51 1
J108 1
52 1
J109 1
53 1
J110 1
18 1
J111 1
19 1
J112 1
20 1
J113 1
21 1
J114 1
22 1
J115 1
23 1
J116 1
24 1
J117 1
25 1
J118 1
26 1
J119 1
27 1
J120 1
28 1
J121 1
29 1
J122 1
30 1
J123 1
31 1
J124 1
32 1
J125 1
33 1
J126 1
34 1
J127 1
35 1
J128 1
36 1
J129 1
37 1
J130 1
38 1
J131 1
39 1
J132 1
40 1
J133 1
41 1
J134 1
42 1
J135 1
43 1
J136 1
44 1
J137 1
45 1
J138 1
46 1
J139 1
47 1
J140 1
48 1
J141 1
49 1
J142 1
50 1
J143 1
51 1
J144 1
52 1
J145 1
53 1
J146 9
1 1
3 1
5 1
7 1
9 1
11 1
13 1
15 1
17 1
